p td 200 600
0 1
0 199
0 2
0 3
0 197
1 2
1 199
1 4
1 198
1 185
2 3
2 4
2 5
2 199
3 5
3 6
3 28
4 5
4 6
4 7
5 7
5 8
5 100
6 7
6 8
6 108
7 9
7 10
7 104
8 9
8 11
8 163
9 10
9 11
9 12
10 11
10 12
10 13
11 12
11 14
11 48
12 13
12 14
12 15
13 14
13 15
13 16
14 15
14 16
14 17
15 16
15 18
15 19
16 17
16 19
16 136
16 168
17 18
17 19
17 20
17 25
18 19
18 20
18 21
19 20
19 21
19 22
20 21
20 22
20 23
20 176
21 22
21 23
21 24
21 170
22 23
22 24
22 25
22 168
22 174
23 25
23 26
23 58
24 25
24 26
24 27
24 137
25 27
25 28
26 27
26 28
26 29
26 111
27 28
27 29
27 30
28 29
28 30
28 31
28 120
29 30
29 31
29 32
30 31
30 32
30 188
31 32
31 33
31 34
32 33
32 34
32 35
33 34
33 35
33 36
34 35
34 36
34 37
35 36
35 37
35 38
36 37
36 38
36 39
37 38
37 39
37 40
38 39
38 40
38 41
39 40
39 41
39 42
40 41
40 42
40 43
41 42
41 43
41 44
42 43
42 44
42 45
43 44
43 45
43 46
44 45
44 46
44 47
45 46
45 47
45 48
46 47
46 48
46 49
47 48
47 49
47 50
48 49
48 50
48 51
49 50
49 51
49 52
50 51
50 52
50 53
51 52
51 53
51 54
52 53
52 54
52 55
53 54
53 55
53 56
54 56
54 57
54 190
55 56
55 57
55 58
56 57
56 58
56 59
57 58
57 59
57 60
58 59
58 60
58 124
58 97
59 60
59 61
59 62
60 61
60 62
60 63
61 62
61 63
61 64
61 95
62 63
62 64
62 183
62 161
63 64
63 65
63 66
64 65
64 66
64 67
65 66
65 67
65 68
65 130
66 67
66 68
66 69
67 68
67 69
67 70
68 70
68 71
68 118
68 172
69 71
69 72
69 169
70 71
70 72
70 73
70 183
71 72
71 73
71 74
71 188
72 73
72 74
72 75
73 74
73 75
73 76
74 75
74 76
74 77
75 76
75 77
75 78
75 103
76 77
76 78
76 79
76 193
77 78
77 79
77 80
78 79
78 80
78 81
79 80
79 81
79 82
80 81
80 82
80 83
81 82
81 83
81 84
82 83
82 84
82 140
83 84
83 85
83 86
84 85
84 87
84 186
85 86
85 87
85 88
86 87
86 88
86 89
87 88
87 89
87 90
88 89
88 90
88 91
89 90
89 91
89 92
89 197
89 144
90 91
90 92
90 93
91 92
91 93
91 94
92 93
92 94
92 95
93 94
93 95
93 96
94 96
94 199
94 164
95 97
95 98
96 97
96 99
96 157
97 98
97 99
97 100
97 198
98 99
98 100
98 101
99 100
99 101
99 102
100 101
100 102
100 103
101 102
101 103
101 104
102 103
102 104
102 105
102 133
103 104
103 106
104 105
104 106
104 107
105 106
105 107
105 108
105 181
106 107
106 108
106 109
107 108
107 109
107 110
108 109
108 110
108 111
109 110
109 112
109 191
110 111
110 112
110 113
111 112
111 114
112 113
112 114
112 115
113 114
113 115
113 116
114 115
114 116
114 117
115 116
115 117
115 118
115 170
116 117
116 118
116 119
117 118
117 119
117 120
118 119
118 120
118 121
119 120
119 121
119 122
120 122
120 123
121 122
121 123
121 124
122 123
122 124
122 125
122 127
122 170
123 124
123 125
123 126
124 125
124 127
125 126
125 127
125 128
126 127
126 128
126 151
127 128
127 130
128 129
128 130
128 131
128 191
129 130
129 131
129 132
130 132
130 133
131 132
131 133
131 134
132 133
132 134
132 135
133 134
133 136
134 135
134 136
134 137
135 136
135 137
135 138
136 137
136 138
136 139
137 139
137 157
138 139
138 140
138 141
139 140
139 141
139 142
140 141
140 142
140 143
140 149
141 142
141 143
141 144
142 143
142 144
142 145
143 144
143 145
143 146
144 145
144 146
145 146
145 147
145 148
146 147
146 148
146 149
147 148
147 149
147 150
148 149
148 150
148 151
149 150
149 151
150 151
150 152
150 153
151 152
151 154
151 179
152 153
152 154
152 155
153 154
153 155
153 156
154 155
154 156
154 157
154 169
155 156
155 157
155 158
156 157
156 158
156 159
157 158
157 159
157 160
158 159
158 160
158 194
158 192
159 160
159 161
159 162
160 161
160 162
160 163
161 162
161 163
161 178
162 163
162 164
162 165
163 164
163 165
163 166
164 165
164 166
164 167
165 166
165 167
165 168
166 167
166 168
166 169
167 168
167 169
167 170
168 170
169 170
169 171
171 172
171 173
171 174
172 174
172 175
173 174
173 175
173 176
174 175
174 176
175 176
175 177
175 178
176 178
176 179
177 178
177 179
177 180
178 179
178 180
179 180
179 181
179 182
179 184
180 181
180 183
180 184
181 182
181 183
182 183
182 184
182 185
183 184
183 186
184 185
184 186
185 186
185 187
185 188
186 187
186 188
186 189
187 188
187 189
187 190
188 189
188 191
189 190
189 191
189 192
190 191
190 192
190 193
191 192
191 194
192 193
192 194
193 194
193 195
194 195
194 196
194 197
195 196
195 197
195 198
196 197
196 198
196 199
197 198
198 199
